
  32    4
  10   10   10   10

   0   0   0   0   0   2 2 3 
   5  10  10  10  10   3 11 6 5 
   9  10  10  10  10   1 4 
   6  10  10  10  10   2 17 5 
   2  10  10  10  10   2 9 7 
   8  10  10  10  10   2 17 7 
  10  10  10  10  10   1 8 
   6  10  10  10  10   1 10 
  10  10  10  10  10   1 10 
   4  10  10  10  10   2 15 12 
   9  10  10  10  10   3 17 15 14 
  10  10  10  10  10   3 19 18 13 
   4  10  10  10  10   1 14 
   1  10  10  10  10   2 20 16 
   5  10  10  10  10   5 28 25 21 19 18 
  10  10  10  10  10   6 31 28 27 25 24 21 
   9  10  10  10  10   3 28 21 19 
   3  10  10  10  10   3 27 24 22 
   9  10  10  10  10   3 27 24 23 
   8  10  10  10  10   3 31 25 23 
   1  10  10  10  10   2 30 22 
   6  10  10  10  10   1 23 
   2  10  10  10  10   1 26 
  10  10  10  10  10   1 26 
   5  10  10  10  10   1 26 
   3  10  10  10  10   1 29 
   5  10  10  10  10   1 29 
   1  10  10  10  10   1 29 
   2  10  10  10  10   1 32
   6  10  10  10  10   1 32
   9  10  10  10  10   1 32
   0   0   0   0   0   0 
